c This is QMaxSAT 2017 based on 14.07
c This is Glucose 3.0
c This is MiniSat 2.2.0
c WARNING: for repeatability, setting FPU to use double precision
c card = mrwto, comp = 0, pmodel = 0, narr = 4, mct = 24, verb = 0
cr firstCPXsol 0 0 0
c top = 81479
c |  Number of variables:    13942                                            |
c |  Number of clauses:      3019494                                          |
c |  Weight of hard clauses: 81479                                            |
c |  Number of soft clauses: 2208                                             |
c |  Number of unit soft clauses: 2208                                        |
c |  Maximum Cardinality (by unit): 325912       (325912      )               |
c last restart ## conflicts  :  2 4768 
o 1643 | cpuTime 0.25802 s
c Sum of weights = 81478
c A number of soft clauses remained = 552
c MRWTO encoding for Pseudo-Boolean Constraints
c sizeMax=1643
c No.0 Divisor=12	generated by pow1
c No.1 Divisor=12	generated by pow1
c No.2 Divisor=12	generated by pow1
c p0= 12	p1= 12	p2= 12	
c number of digits = 4
c linkingVar[0].size = 12, linkingVar[1].size = 12, linkingVar[2].size = 12, linkingVar[3].size = 1, 
c Pseudo-Boolean Constraints: 12278 variables and 120351 clauses
c Sum of weights = 81478
c A number of soft clauses remained = 552
c MRWTO encoding for Pseudo-Boolean Constraints
c sizeMax=1643
c No.0 Divisor=12	generated by pow1
c No.1 Divisor=12	generated by pow1
c No.2 Divisor=12	generated by pow1
c p0= 12	p1= 12	p2= 12	
c number of digits = 4
c linkingVar[0].size = 12, linkingVar[1].size = 12, linkingVar[2].size = 12, linkingVar[3].size = 1, 
c Pseudo-Boolean Constraints: 12278 variables and 120351 clauses
c Sum of weights = 81478
c A number of soft clauses remained = 552
c MRWTO encoding for Pseudo-Boolean Constraints
c sizeMax=1643
c No.0 Divisor=12	generated by pow1
c No.1 Divisor=12	generated by pow1
c No.2 Divisor=12	generated by pow1
c p0= 12	p1= 12	p2= 12	
c number of digits = 4
c linkingVar[0].size = 12, linkingVar[1].size = 12, linkingVar[2].size = 12, linkingVar[3].size = 1, 
c Pseudo-Boolean Constraints: 12278 variables and 120351 clauses
c Sum of weights = 81478
c A number of soft clauses remained = 552
c MRWTO encoding for Pseudo-Boolean Constraints
c sizeMax=1643
c No.0 Divisor=12	generated by pow1
c No.1 Divisor=12	generated by pow1
c No.2 Divisor=12	generated by pow1
c p0= 12	p1= 12	p2= 12	
c number of digits = 4
c linkingVar[0].size = 12, linkingVar[1].size = 12, linkingVar[2].size = 12, linkingVar[3].size = 1, 
c Pseudo-Boolean Constraints: 12278 variables and 120351 clauses
c last restart ## conflicts  :  27 10152 
o 1442 | cpuTime 0.3552 s
c last restart ## conflicts  :  126 7044 
o 1314 | cpuTime 0.591543 s
c last restart ## conflicts  :  76 8711 
o 1059 | cpuTime 0.703768 s
c last restart ## conflicts  :  135 5573 
o 961 | cpuTime 2.27657 s
c last restart ## conflicts  :  504 5427 
o 922 | cpuTime 3.44836 s
c last restart ## conflicts  :  447 5580 
o 916 | cpuTime 5.64179 s
c last restart ## conflicts  :  157 4684 
o 896 | cpuTime 12.4856 s
c last restart ## conflicts  :  665 4975 
o 885 | cpuTime 14.4907 s
c last restart ## conflicts  :  413 5004 
o 842 | cpuTime 15.5232 s
c last restart ## conflicts  :  384 5002 
o 839 | cpuTime 17.1602 s
c last restart ## conflicts  :  714 5720 
o 819 | cpuTime 19.02 s
c last restart ## conflicts  :  548 7668 
o 817 | cpuTime 27.5837 s
c last restart ## conflicts  :  289 6764 
o 800 | cpuTime 27.7922 s
c last restart ## conflicts  :  227 6271 
o 777 | cpuTime 71.7451 s
c last restart ## conflicts  :  14 5107 
o 758 | cpuTime 163.032 s
c last restart ## conflicts  :  891 4844 
o 757 | cpuTime 260.059 s
c last restart ## conflicts  :  786 4545 
o 754 | cpuTime 431.57 s
c last restart ## conflicts  :  477 5874 
o 735 | cpuTime 469.454 s
c last restart ## conflicts  :  16 9785 
o 734 | cpuTime 596.767 s
c last restart ## conflicts  :  313 7310 
o 725 | cpuTime 687.902 s
c last restart ## conflicts  :  149 15131 
o 719 | cpuTime 687.934 s
c last restart ## conflicts  :  1044 5439 
o 717 | cpuTime 759.652 s
c last restart ## conflicts  :  693 4714 
o 700 | cpuTime 864.001 s
c last restart ## conflicts  :  3136 4918 
o 690 | cpuTime 1957.07 s
c last restart ## conflicts  :  23 12673 
o 687 | cpuTime 1957.09 s
c last restart ## conflicts  :  773 4828 
o 685 | cpuTime 2258.45 s
c last restart ## conflicts  :  518 5765 
o 674 | cpuTime 2329.36 s
s UNKNOWN
c Search is stopped by a limit (maybe time-limit)
cr positiVarArr: [ | 11@1(1->11) | 258@1(11->18) | 265@1(12->1) | 396@1(17->12) | 425@1(18->17) | 591@2(1->15) | 620@2(2->20) | 889@2(14->1) | 914@2(15->2) | 1046@2(20->14) | 1168@3(1->16) | 1222@3(3->22) | 1254@3(5->6) | 1273@3(6->1) | 1304@3(7->8) | 1323@3(8->3) | 1519@3(16->7) | 1605@3(19->21) | 1637@3(21->5) | 1675@3(22->19) | 1752@4(1->24) | 1801@4(4->1) | 1943@4(9->23) | 1957@4(10->13) | 2025@4(13->9) | 2260@4(23->4) | 2290@4(24->10) | ]
cr the 1-th chain: [ 1->11->18->17->12->1 ] (#non-depot=4) {#cumul.=5}
cr the 2-th chain: [ 1->15->2->20->14->1 ] (#non-depot=4) {#cumul.=9}
cr the 3-th chain: [ 1->16->7->8->3->22->19->21->5->6->1 ] (#non-depot=9) {#cumul.=18}
cr the 4-th chain: [ 1->24->10->13->9->23->4->1 ] (#non-depot=6) {#cumul.=24}
c Latest Answer = 0 by 28 loops
c restarts              : 113072
c conflicts             : 16414852       (4570 /sec)
c decisions             : 102694379      (0.00 % random) (28590 /sec)
c propagations          : 13903498775    (3870658 /sec)
c conflict literals     : 3183110754     (25.26 % deleted)
c Memory used           : 870.00 MB
c CPU time              : 3592.02 s
